%chk=job.chk
#P B3LYP/6-31G* Force
   SCF=(DIIS,MaxCycle=150,Tight) 
   Integral=(Grid=SG1)
   Nosymm
   Pop=Minimal Output=NoEigenvectors

Title section

0 1
